10  659
1   4   6    22    48    25    
2   4   16    7    8    20    
3   6   27    32    37    40    49    3    
4   5   38    44    17    24    35    
5   3   21    45    1    
6   6   13    42    47    2    19    10    
7   4   46    43    34    18    
8   5   41    26    15    30    50    
9   6   36    31    28    14    4    5    
10   7   11    12    39    33    23    29    9    

